AtomMove.TypeOfRun               static
Basis.BasisSet                   PAOs
DM.SolutionMethod                diagon
General.NumberOfSpecies          2
General.PseudopotentialType      hamann
Grid.GridCutoff                  100
IO.Coordinates                   Longer.in
IO.Iprint                        0
IO.Title                         Water layer
SC.KerkerPreCondition            T
SC.MaxIters                      250
SC.SurfaceDipoleCorrection       T
SC.OutputAveragePotential        T
SC.SurfaceNormal                 z
minE.SCTolerance                 1.000000e-08
minE.SelfConsistent              True
Diag.MPMesh                      True
Diag.MPMeshX                     1
Diag.MPMeshY                     1
Diag.MPMeshZ                     1

%block ChemicalSpeciesLabel
 1   15.999  O
 2    1.000  H
%endblock ChemicalSpeciesLabel
